###############################################################################
##########       Standard state GEMSFIT configuration file       ##############
###############################################################################

# DataManager: get measurement data from CSV file (0) or PostgreSQL database (1)
<DatSource>
1

?# Optimization: call TSolMod wrapper (0) or perform full equilibrium computation with GEMS3K (1)
<OptEqSolv>
0

# DataManager: if <DatSource> == 0 then enter name of CSV file
<DatCSVfile>
cacl2_meas_lowconc.csv

# DataManager: username
<DatUsername>
postgres		  

# DataManager: database password
<DatPasswd>
miron64766

# DataManager: database name
<DatDB>
solubility

# DataManager: database server
<DatServer>
localhost

# DataManager: data table name
#cacl2_meas_373K_1bar
<DatTable>
qtz_h2o_nacl 

# DataManager: Reaction dependent species table name
<DatRDCTable>
RDCqtz_h2o_nacl

# name of the system that will be fitted
<SystemName>
SS_INPUT/qtz_h2o_nacl-dat.lst

# name of the species that will be fitted
<FitSpeciesName>
Na+ NaCl@ NaOH@ Na(HSiO3)@ HSiO3- SiO2@ SiO3-2 ClO- HClO@ ClO2- HClO2@ ClO3- ClO4- Cl- Amor-Sl

# Dependent components names
<DepComp>
Na+ Cl- OH- H+ H2O@
# Na+ Cl- OH- H+ H2O@ H2 O2 Hl Na-Ox

# Dependent components charges
<DepCompCharge>
1. -1. -1. 1. 0.

# Name of activity model
<ActivityModel>
SIT

# LsMod:	description of sizes of aIDc, aIPc and aIPx arrays
<LsMod>
4 2 2 
0 0 0

# IPxPH:  Collected indexation table for interaction parameters of non-ideal solutions.
<IPxPH> 
0 1 
0 2 
1 2 
2 3  
   
# PMc: Collected interaction parameter coefficients for the (built-in) non-ideal mixing models
<PMc>  
F0.045 0 
F1 0 
F1 0 
F1 0

# LsMod: Dimensions of <IPxPH> and <PMc> arrays [nPS*3]
<LsMdc>
0 0 0 
0 0 0

# DMc: Collected parameters per phase component for the non-ideal mixing models 
# ELVIS: Q effRad R
# F16.6109947079	1.91	F-0.0471236095	F5.69E-005	F9.1440281658	F-0.0206127089	F1.66E-005	0	0	0	F0.0004449462	F-1.45E-006	F1.86E-009    
<DMc> 
	  

# Optimization: specify vector oupper and lower bounds
<OptUpBounds> 
10 10 10 10
 
 
<OptLoBounds> 
 
-10 -10 -10 -10


# Optimization: apply constraints (1=yes, 0=no)
<OptConstraints>
0

# Optimization: specify parameter vectors for constraint function
<OptUpConstraints>
15000.0 15000.0  



<OptLoConstraints>
-10000.0 -10000.0 
-10000.0 -10000.0 
-10000.0 -10000.0 

# Optimization: specify algorithm GN_ISRES GN_ORIG_DIRECT GN_ORIG_DIRECT_L LN_COBYLA LN_BOBYQA GN_ISRES
<OptAlgo>
GN_ISRES

# Optimization: Number of threads (default=1)
<OptThreads>
1

# Optimization: stopping criterion -> specify relative tolerance (default = 1e-04) of function value
<OptTolRel>
1e-03

# Optimization: stopping criterion -> specify absolute tolerance (default = 1e-04) of function value
<OptTolAbs>
1e-03

# Optimization: specify max number of evaluations
<OptMaxEval>
1500000 


# Optimization: run hybrid optimization yes (1) / no (0)
<OptHybridMode>
0

# Optimization: specify hybrid algorithm GN_ISRES LN_COBYLA LN_BOBYQA
<OptHybridAlgo>
LN_COBYLA

# Optimization: hybrid stopping criterion -> specify relative tolerance (default = 1e-04) of function value
<OptHybridTolRel>
1e-03

# Optimization: hybrid stopping criterion -> specify absolute tolerance (default = 1e-04) of function value
<OptHybridTolAbs>
1e-03

# Optimization: specify max number of hybrid evaluations
<OptHybridMaxEval>
5000000 

# Optimization: specify number of multistart runs (deactivate with 0)
<OptNmultistart>
0

# Optimization: specify initial stepsize for local minimizers (factor will be multiplied to all optimization parameters); 0 => use default
<OptInitStep>
0

# Optimization: Normalize bounds/constraints/fitting parameters with initial guess vector
<OptNormParam>
1

# Generate bounds from initial guess vector: specify percentage deviation (user specific, user-defined bounds when set to -1)
<OptBoundPerc>
35

# Optimization: perform optimization and statistics (0), only optimization with basic Statistics (1), only Statistics (2) with initial guesses as best fit parametters
<OptDoWhat>
1

# Opitmization: if only Statistics is to be computed (no optimization) then enter best fit values here
<OptStatOnlyBestFitParam>
0.0142689 
7.76278

# Opitmization: if only Statistics is to be computed (no optimization) then enter best fit values here
<OptStatOnlySSR>
70.7968

# Statistics: perform Monte Carlo runs -> yes (1)/no (0)
<StatMCbool>
0

# Statistics: number of Monte Carlo runs for confidence interval generation
<StatMCruns>
10

# Statistics: number of bars for printing results from Monte Carlo confidence interval generation
<StatMCbars>
10

# Statistics: number of evaluations points per parameter for sensitivity evaluation
<StatSensitivity>
500

# Statistics: number of function evaluations per axis (total value will be StatSSRSensitivity squared)
<StatSSRSensitivity>
100


# Printing information: specifiy which datapoints to print to file and format of output file
<PrintTemperatures>
298.15

<PrintPressures>
1 

<PrintMolalities>
0.0001 - 4.5		

<PrintFormat>
eps

<PrintFilename>
Comp_vs_Meas

<PrintMeasValueCode>
0

<PrintLabelXaxis>
molality

<PrintLabelYaxis>
activity coefficient

<PrintHead>
System: test plot



#
